NAME: pr1002.tour
COMMENT: Best tour for pr1002.tsp (267591.0)
TYPE: TOUR
DIMENSION: 1002
TOUR_SECTION
657
655
656
662
661
660
356
355
357
354
348
347
346
343
342
341
344
345
349
350
351
352
353
359
358
360
361
390
392
391
340
339
338
337
336
335
398
397
396
400
399
401
382
380
379
381
385
383
384
395
394
393
389
387
386
388
362
363
364
365
366
367
368
378
369
377
370
371
372
373
376
375
374
637
636
635
634
633
992
625
626
628
627
611
629
630
631
632
441
439
438
440
442
443
444
446
447
445
448
449
585
586
587
581
582
583
584
454
455
453
452
451
450
434
433
432
431
997
435
436
437
413
412
411
409
408
407
410
416
414
415
417
406
405
421
422
420
418
419
427
426
425
424
423
462
461
463
464
466
465
460
428
429
430
456
457
458
459
473
474
475
476
472
471
477
478
479
480
470
469
468
467
276
275
274
273
272
270
271
269
268
267
266
265
264
263
231
229
228
227
226
230
232
233
235
234
221
236
237
238
239
190
191
192
193
189
188
194
197
199
200
198
201
202
196
195
187
186
241
240
242
243
244
245
246
262
261
260
248
247
249
250
251
252
253
254
255
256
259
258
257
121
120
279
278
280
277
281
282
283
301
302
303
304
113
111
110
112
114
115
116
117
119
118
106
105
104
103
994
107
108
109
85
84
83
82
78
79
80
81
52
53
51
50
41
49
42
43
48
47
46
309
308
307
306
305
991
297
298
300
299
284
285
286
287
288
404
403
402
292
291
290
289
296
295
293
294
321
322
323
324
326
325
319
320
318
317
311
310
312
45
44
313
316
315
314
331
330
329
327
328
334
333
332
28
27
29
26
30
31
33
34
35
36
37
38
39
40
60
59
58
57
54
55
56
72
73
71
70
69
68
67
66
65
61
62
64
63
32
24
25
23
22
21
20
19
18
17
12
11
13
16
15
14
10
9
8
7
6
4
3
5
2
1
74
75
76
77
93
94
92
90
89
88
86
87
91
99
98
97
96
95
136
135
134
133
100
101
102
129
130
128
127
125
124
123
122
126
147
146
145
131
132
137
138
139
140
141
142
143
144
148
149
152
151
150
995
153
154
156
164
155
165
166
169
168
167
163
162
157
158
159
185
184
160
161
172
171
170
173
174
175
176
177
178
179
180
181
183
182
996
203
204
206
205
207
208
209
210
211
212
217
218
219
215
216
213
214
220
222
223
224
225
497
496
495
494
493
483
482
481
998
580
579
578
577
576
575
573
574
590
589
588
598
599
597
596
595
594
593
592
591
572
571
559
560
558
557
556
555
554
553
552
551
550
549
562
561
563
564
565
566
568
570
569
514
567
517
516
515
523
524
530
510
511
512
513
485
484
492
491
490
486
487
488
489
500
499
498
501
502
503
504
505
506
507
508
509
999
531
532
533
538
537
536
535
534
528
527
526
529
525
522
521
520
518
519
546
547
548
542
543
544
545
540
539
541
826
827
828
829
830
831
832
833
834
835
836
837
838
839
840
841
815
816
817
818
814
813
812
820
819
823
824
825
822
821
811
810
809
1001
908
907
906
903
904
905
909
910
911
912
782
781
780
779
778
776
777
913
914
915
916
917
918
902
901
900
899
898
842
897
896
895
894
893
892
847
846
848
849
845
844
843
851
850
853
854
855
856
857
852
858
1002
859
860
862
861
863
864
865
866
867
869
870
871
872
868
873
874
875
876
877
890
891
889
878
879
880
881
882
883
884
885
886
888
887
919
920
921
922
923
924
925
927
926
928
929
930
931
932
933
934
935
936
937
938
939
957
958
959
960
767
766
768
769
770
771
772
774
773
775
762
761
760
759
1000
763
764
765
741
742
743
745
744
738
739
740
703
702
704
705
697
698
699
700
701
968
969
972
975
976
974
973
967
966
965
964
963
962
961
993
953
954
956
955
940
941
942
943
944
945
946
947
948
949
952
951
950
977
978
979
980
981
982
971
970
987
986
985
983
984
990
989
988
684
683
685
686
687
682
681
680
679
678
677
676
675
674
673
672
671
669
670
666
667
668
665
664
663
726
725
724
728
727
729
710
711
712
723
722
721
715
716
717
720
719
718
688
689
690
691
692
693
694
695
696
706
707
714
713
709
708
737
736
735
734
733
749
750
748
746
747
755
754
753
752
751
790
791
792
794
793
789
756
757
758
783
784
785
786
788
787
801
802
803
804
800
799
805
806
807
808
798
797
796
795
601
600
602
603
604
605
606
607
608
609
610
612
613
614
615
616
732
731
730
620
619
618
617
624
623
621
622
649
650
651
652
654
653
647
648
646
645
639
638
640
641
644
643
642
659
658
-1
EOF